licencjackie/rok3/MM/MM2/ch.lp
\ This file was automatically generated by Zimpl
\ set I:={1 to 10};
\ set D:={read "ch.txt" as "<1n>" comment "#"};
\ param nadajnik_x[D]:=read "ch.txt" as "<1n>2n" comment "#";
\ param nadajnik_y[D]:=read "ch.txt" as "<1n>3n" comment "#";
\ param zasieg_min[D]:=read "ch.txt" as "<1n>4n" comment "#";
\ param zasieg_max[D]:=read "ch.txt" as "<1n>5n" comment "#";
\ param odl[<i,j,d> in I*I*D]:= sqrt((i-nadajnik_x[d])^2+(j-nadajnik_y[d])^2);
\ param czywzasiegu[<i,j,d> in I*I*D]:=if(odl[i,j,d]<=zasieg_max[d]) then 1 else 0 end;
\ var wybor[D] binary;
\ subto ogr4: forall <i,j> in I*I do sum<d> in D do czywzasiegu[i,j,d]*wybor[d]>=1;
\ minimize fcelu: sum<d> in D do wybor[d];
\Problem name: ch.zpl
Minimize
 fcelu:  + wybor#1 + wybor#2 + wybor#3 + wybor#4 + wybor#5 + wybor#6
  + wybor#7 + wybor#8 + wybor#9 + wybor#10 + wybor#11 + wybor#12
  + wybor#13 + wybor#14 + wybor#15
Subject to
 ogr4_1:
  + wybor#14 + wybor#13 + wybor#3 + wybor#1 >= 1
 ogr4_2:
  + wybor#14 + wybor#13 + wybor#3 + wybor#1 >= 1
 ogr4_3:
  + wybor#14 + wybor#13 + wybor#5 + wybor#3 + wybor#1 >= 1
 ogr4_4:
  + wybor#14 + wybor#13 + wybor#12 + wybor#5 + wybor#3 + wybor#1
  >= 1
 ogr4_5:
  + wybor#15 + wybor#14 + wybor#13 + wybor#12 + wybor#10 + wybor#5
  + wybor#3 + wybor#1 >= 1
 ogr4_6:
  + wybor#15 + wybor#14 + wybor#13 + wybor#12 + wybor#10 + wybor#5
  + wybor#1 >= 1
 ogr4_7:
  + wybor#15 + wybor#14 + wybor#13 + wybor#12 + wybor#10 + wybor#5
  + wybor#1 >= 1
 ogr4_8:
  + wybor#15 + wybor#13 + wybor#12 + wybor#10 + wybor#5 >= 1
 ogr4_9:
  + wybor#15 + wybor#13 + wybor#12 + wybor#10 + wybor#5 >= 1
 ogr4_10:
  + wybor#15 + wybor#13 + wybor#12 + wybor#10 >= 1
 ogr4_11:
  + wybor#14 + wybor#13 + wybor#3 + wybor#1 >= 1
 ogr4_12:
  + wybor#14 + wybor#13 + wybor#3 + wybor#1 >= 1
 ogr4_13:
  + wybor#14 + wybor#13 + wybor#3 + wybor#1 >= 1
 ogr4_14:
  + wybor#14 + wybor#13 + wybor#12 + wybor#10 + wybor#5 + wybor#3
  + wybor#1 >= 1
 ogr4_15:
  + wybor#14 + wybor#13 + wybor#12 + wybor#10 + wybor#6 + wybor#5
  + wybor#3 + wybor#1 >= 1
 ogr4_16:
  + wybor#15 + wybor#14 + wybor#13 + wybor#12 + wybor#10 + wybor#5
  + wybor#1 >= 1
 ogr4_17:
  + wybor#15 + wybor#14 + wybor#13 + wybor#12 + wybor#10 + wybor#5
  + wybor#1 >= 1
 ogr4_18:
  + wybor#15 + wybor#14 + wybor#13 + wybor#12 + wybor#10 + wybor#5
  >= 1
 ogr4_19:
  + wybor#15 + wybor#13 + wybor#12 + wybor#10 >= 1
 ogr4_20:
  + wybor#15 + wybor#13 + wybor#12 + wybor#10 >= 1
 ogr4_21:
  + wybor#14 + wybor#13 + wybor#8 + wybor#7 + wybor#3 + wybor#1
  >= 1
 ogr4_22:
  + wybor#14 + wybor#13 + wybor#7 + wybor#6 + wybor#3 + wybor#1
  >= 1
 ogr4_23:
  + wybor#14 + wybor#13 + wybor#7 + wybor#6 + wybor#3 + wybor#1
  >= 1
 ogr4_24:
  + wybor#14 + wybor#13 + wybor#12 + wybor#10 + wybor#6 + wybor#5
  + wybor#3 + wybor#1 >= 1
 ogr4_25:
  + wybor#14 + wybor#13 + wybor#12 + wybor#10 + wybor#6 + wybor#5
  + wybor#3 + wybor#1 >= 1
 ogr4_26:
  + wybor#15 + wybor#14 + wybor#13 + wybor#12 + wybor#10 + wybor#6
  + wybor#5 + wybor#4 + wybor#2 + wybor#1 >= 1
 ogr4_27:
  + wybor#15 + wybor#14 + wybor#13 + wybor#12 + wybor#10 + wybor#6
  + wybor#5 + wybor#1 >= 1
 ogr4_28:
  + wybor#15 + wybor#13 + wybor#12 + wybor#10 + wybor#6 + wybor#5
  >= 1
 ogr4_29:
  + wybor#15 + wybor#13 + wybor#12 + wybor#10 >= 1
 ogr4_30:
  + wybor#15 + wybor#13 + wybor#12 + wybor#10 >= 1
 ogr4_31:
  + wybor#14 + wybor#13 + wybor#8 + wybor#7 + wybor#6 + wybor#3
  + wybor#1 >= 1
 ogr4_32:
  + wybor#14 + wybor#13 + wybor#8 + wybor#7 + wybor#6 + wybor#3
  + wybor#1 >= 1
 ogr4_33:
  + wybor#14 + wybor#13 + wybor#12 + wybor#8 + wybor#7 + wybor#6
  + wybor#4 + wybor#3 + wybor#1 >= 1
 ogr4_34:
  + wybor#14 + wybor#13 + wybor#12 + wybor#10 + wybor#8 + wybor#7
  + wybor#6 + wybor#4 + wybor#3 + wybor#1 >= 1
 ogr4_35:
  + wybor#14 + wybor#13 + wybor#12 + wybor#10 + wybor#6 + wybor#4
  + wybor#2 + wybor#1 >= 1
 ogr4_36:
  + wybor#14 + wybor#13 + wybor#12 + wybor#10 + wybor#6 + wybor#5
  + wybor#4 + wybor#2 + wybor#1 >= 1
 ogr4_37:
  + wybor#14 + wybor#13 + wybor#12 + wybor#10 + wybor#6 + wybor#4
  + wybor#2 >= 1
 ogr4_38:
  + wybor#15 + wybor#13 + wybor#12 + wybor#10 + wybor#6 + wybor#4
  >= 1
 ogr4_39:
  + wybor#13 + wybor#12 + wybor#10 + wybor#6 + wybor#4 >= 1
 ogr4_40:
  + wybor#13 + wybor#12 + wybor#10 >= 1
 ogr4_41:
  + wybor#14 + wybor#13 + wybor#8 + wybor#7 + wybor#6 + wybor#3
  + wybor#1 >= 1
 ogr4_42:
  + wybor#14 + wybor#13 + wybor#8 + wybor#7 + wybor#6 + wybor#4
  + wybor#3 + wybor#1 >= 1
 ogr4_43:
  + wybor#14 + wybor#13 + wybor#10 + wybor#8 + wybor#7 + wybor#6
  + wybor#4 + wybor#3 + wybor#1 >= 1
 ogr4_44:
  + wybor#14 + wybor#13 + wybor#12 + wybor#10 + wybor#8 + wybor#7
  + wybor#6 + wybor#4 + wybor#2 + wybor#1 >= 1
 ogr4_45:
  + wybor#14 + wybor#13 + wybor#12 + wybor#10 + wybor#8 + wybor#6
  + wybor#4 + wybor#2 + wybor#1 >= 1
 ogr4_46:
  + wybor#14 + wybor#13 + wybor#12 + wybor#10 + wybor#9 + wybor#6
  + wybor#4 + wybor#2 >= 1
 ogr4_47:
  + wybor#14 + wybor#13 + wybor#12 + wybor#10 + wybor#6 + wybor#4
  + wybor#2 >= 1
 ogr4_48:
  + wybor#13 + wybor#12 + wybor#10 + wybor#6 + wybor#4 + wybor#2
  >= 1
 ogr4_49:
  + wybor#13 + wybor#12 + wybor#10 + wybor#6 + wybor#4 >= 1
 ogr4_50:
  + wybor#12 + wybor#11 + wybor#10 + wybor#6 + wybor#4 >= 1
 ogr4_51:
  + wybor#14 + wybor#8 + wybor#7 + wybor#6 + wybor#4 >= 1
 ogr4_52:
  + wybor#14 + wybor#13 + wybor#8 + wybor#7 + wybor#6 + wybor#4
  + wybor#1 >= 1
 ogr4_53:
  + wybor#14 + wybor#13 + wybor#8 + wybor#7 + wybor#6 + wybor#4
  >= 1
 ogr4_54:
  + wybor#14 + wybor#13 + wybor#12 + wybor#10 + wybor#9 + wybor#8
  + wybor#7 + wybor#6 + wybor#4 >= 1
 ogr4_55:
  + wybor#14 + wybor#13 + wybor#12 + wybor#10 + wybor#9 + wybor#8
  + wybor#6 + wybor#4 + wybor#2 >= 1
 ogr4_56:
  + wybor#14 + wybor#13 + wybor#12 + wybor#10 + wybor#9 + wybor#6
  + wybor#4 + wybor#2 >= 1
 ogr4_57:
  + wybor#13 + wybor#12 + wybor#10 + wybor#9 + wybor#6 + wybor#4
  + wybor#2 >= 1
 ogr4_58:
  + wybor#13 + wybor#12 + wybor#10 + wybor#9 + wybor#6 + wybor#4
  >= 1
 ogr4_59:
  + wybor#12 + wybor#11 + wybor#10 + wybor#6 + wybor#4 >= 1
 ogr4_60:
  + wybor#12 + wybor#11 + wybor#10 + wybor#6 + wybor#4 >= 1
 ogr4_61:
  + wybor#14 + wybor#8 + wybor#7 + wybor#6 + wybor#4 >= 1
 ogr4_62:
  + wybor#14 + wybor#8 + wybor#7 + wybor#6 + wybor#4 >= 1
 ogr4_63:
  + wybor#14 + wybor#8 + wybor#7 + wybor#6 + wybor#4 >= 1
 ogr4_64:
  + wybor#14 + wybor#12 + wybor#10 + wybor#9 + wybor#8 + wybor#7
  + wybor#6 + wybor#4 >= 1
 ogr4_65:
  + wybor#14 + wybor#13 + wybor#12 + wybor#10 + wybor#9 + wybor#8
  + wybor#7 + wybor#6 + wybor#4 >= 1
 ogr4_66:
  + wybor#12 + wybor#10 + wybor#9 + wybor#6 + wybor#4 + wybor#2
  >= 1
 ogr4_67:
  + wybor#12 + wybor#10 + wybor#9 + wybor#6 + wybor#4 >= 1
 ogr4_68:
  + wybor#12 + wybor#11 + wybor#10 + wybor#9 + wybor#6 + wybor#4
  >= 1
 ogr4_69:
  + wybor#12 + wybor#11 + wybor#10 + wybor#6 + wybor#4 >= 1
 ogr4_70:
  + wybor#12 + wybor#11 + wybor#10 + wybor#6 + wybor#4 >= 1
 ogr4_71:
  + wybor#8 + wybor#7 + wybor#6 + wybor#4 >= 1
 ogr4_72:
  + wybor#14 + wybor#8 + wybor#7 + wybor#6 + wybor#4 >= 1
 ogr4_73:
  + wybor#9 + wybor#8 + wybor#7 + wybor#6 + wybor#4 >= 1
 ogr4_74:
  + wybor#10 + wybor#9 + wybor#8 + wybor#7 + wybor#6 + wybor#4
  >= 1
 ogr4_75:
  + wybor#12 + wybor#10 + wybor#9 + wybor#8 + wybor#6 + wybor#4
  >= 1
 ogr4_76:
  + wybor#12 + wybor#10 + wybor#9 + wybor#8 + wybor#6 + wybor#4
  >= 1
 ogr4_77:
  + wybor#12 + wybor#10 + wybor#9 + wybor#6 + wybor#4 >= 1
 ogr4_78:
  + wybor#12 + wybor#10 + wybor#9 + wybor#6 + wybor#4 >= 1
 ogr4_79:
  + wybor#12 + wybor#11 + wybor#10 + wybor#9 + wybor#6 + wybor#4
  >= 1
 ogr4_80:
  + wybor#12 + wybor#11 + wybor#10 + wybor#6 + wybor#4 >= 1
 ogr4_81:
  + wybor#8 + wybor#7 + wybor#6 + wybor#4 >= 1
 ogr4_82:
  + wybor#8 + wybor#7 + wybor#6 + wybor#4 >= 1
 ogr4_83:
  + wybor#8 + wybor#7 + wybor#6 + wybor#4 >= 1
 ogr4_84:
  + wybor#9 + wybor#8 + wybor#7 + wybor#6 + wybor#4 >= 1
 ogr4_85:
  + wybor#10 + wybor#9 + wybor#8 + wybor#6 + wybor#4 >= 1
 ogr4_86:
  + wybor#12 + wybor#10 + wybor#9 + wybor#6 + wybor#4 >= 1
 ogr4_87:
  + wybor#12 + wybor#10 + wybor#9 + wybor#6 + wybor#4 >= 1
 ogr4_88:
  + wybor#12 + wybor#10 + wybor#9 + wybor#6 + wybor#4 >= 1
 ogr4_89:
  + wybor#12 + wybor#10 + wybor#6 + wybor#4 >= 1
 ogr4_90:
  + wybor#12 + wybor#11 + wybor#10 + wybor#6 + wybor#4 >= 1
 ogr4_91:
  + wybor#8 + wybor#7 + wybor#6 + wybor#4 >= 1
 ogr4_92:
  + wybor#8 + wybor#7 + wybor#6 + wybor#4 >= 1
 ogr4_93:
  + wybor#8 + wybor#7 + wybor#6 + wybor#4 >= 1
 ogr4_94:
  + wybor#9 + wybor#8 + wybor#7 + wybor#6 + wybor#4 >= 1
 ogr4_95:
  + wybor#9 + wybor#8 + wybor#6 + wybor#4 >= 1
 ogr4_96:
  + wybor#10 + wybor#9 + wybor#6 + wybor#4 >= 1
 ogr4_97:
  + wybor#10 + wybor#9 + wybor#6 + wybor#4 >= 1
 ogr4_98:
  + wybor#10 + wybor#9 + wybor#6 + wybor#4 >= 1
 ogr4_99:
  + wybor#12 + wybor#10 + wybor#6 + wybor#4 >= 1
 ogr4_100:
  + wybor#10 + wybor#6 + wybor#4 >= 1
Bounds
 0 <= wybor#1 <= 1
 0 <= wybor#2 <= 1
 0 <= wybor#3 <= 1
 0 <= wybor#4 <= 1
 0 <= wybor#5 <= 1
 0 <= wybor#6 <= 1
 0 <= wybor#7 <= 1
 0 <= wybor#8 <= 1
 0 <= wybor#9 <= 1
 0 <= wybor#10 <= 1
 0 <= wybor#11 <= 1
 0 <= wybor#12 <= 1
 0 <= wybor#13 <= 1
 0 <= wybor#14 <= 1
 0 <= wybor#15 <= 1
General
 wybor#1
 wybor#2
 wybor#3
 wybor#4
 wybor#5
 wybor#6
 wybor#7
 wybor#8
 wybor#9
 wybor#10
 wybor#11
 wybor#12
 wybor#13
 wybor#14
 wybor#15
End
