licencjackie/rok3/MM/MM2/ch.txt
#wspólrzędne nadajnika, minimalny zasięg, maksymalny zasięg
1	0	2	2	6
2	5	6	2	2
3	0	0	2	6
4	9	6	3	6
5	1	6	2	3
6	8	5	2	6
7	7	0	2	5
8	8	1	3	5
9	8	6	2	3
10	5	9	2	6
11	7	10	2	2
12	4	9	3	6
13	0	5	3	7
14	2	2	3	6
15	1	8	3	3

